letting n_nurses=25
letting n_days=7
letting n_shift_types=4
letting max_covers=5
letting t_covers=35
letting covers=[5,2,3,0,1,1,0,0,1,1,0,0,0,0,0,0,3,5,1,0,0,1,2,0,4,1,4,0]
letting prefes=[1,1,4,1,2,2,4,2,2,1,4,1,2,1,4,1,2,2,4,2,2,2,4,2,1,1,4,1,1,3,4,1,1,1,1,2,1,1,4,1,1,1,4,1,1,1,1,2,1,1,1,2,1,3,4,1,1,1,4,1,1,1,4,2,1,4,4,1,1,4,4,1,1,1,4,2,1,1,4,2,1,1,4,1,1,3,1,1,1,1,4,2,1,4,4,1,1,4,4,1,1,1,4,2,1,1,4,2,1,3,1,1,1,3,4,1,1,1,4,2,2,4,1,1,2,4,1,1,1,1,4,2,1,1,4,2,1,3,4,1,1,1,1,1,1,1,4,2,1,4,1,1,1,4,1,1,1,1,4,2,1,1,4,2,1,1,1,1,1,3,4,1,1,1,4,2,1,4,4,1,1,4,4,1,1,1,4,2,1,1,4,2,1,3,4,1,1,3,1,1,1,1,4,1,1,4,4,1,1,4,4,1,1,1,4,1,1,1,4,1,1,3,1,1,1,1,4,1,2,2,1,2,2,4,4,1,2,4,4,1,2,2,1,2,2,2,1,2,1,1,4,1,1,3,4,1,1,1,1,2,1,4,4,1,1,4,4,1,1,1,1,2,1,1,1,2,1,3,4,1,3,3,4,3,1,1,4,1,1,4,1,2,1,4,1,2,1,1,4,1,1,1,4,1,3,3,4,3,1,3,4,1,1,1,4,2,1,4,4,2,1,4,4,2,1,1,4,2,1,1,4,2,1,3,4,1,3,3,4,3,1,1,4,1,1,4,4,1,1,4,4,1,1,1,4,1,1,1,4,1,3,3,4,3,1,3,1,1,1,1,1,2,1,4,4,2,1,4,4,2,1,1,1,2,1,1,1,2,1,3,1,1,1,3,4,1,2,2,4,2,1,1,4,1,1,1,4,1,2,2,4,2,2,2,4,2,1,3,4,1,1,3,4,1,1,1,4,2,1,4,4,2,1,4,4,2,1,1,4,2,1,1,4,2,1,3,4,1,1,3,1,1,1,2,4,2,1,1,4,1,1,1,4,1,1,2,4,2,1,2,4,2,1,3,1,1,1,3,4,1,1,1,4,2,1,4,1,2,1,4,1,2,1,1,4,2,1,1,4,2,1,3,4,1,3,3,4,3,1,1,1,2,1,4,4,1,1,4,4,1,1,1,1,2,1,1,1,2,3,3,4,3,1,3,4,1,1,1,4,2,1,4,4,1,1,4,4,1,1,1,4,2,1,1,4,2,1,3,4,1,3,1,4,3,1,1,4,1,1,4,1,1,1,4,1,1,1,1,4,1,1,1,4,1,3,1,4,3,3,3,4,3,2,1,4,2,2,4,4,1,2,4,4,1,2,1,4,2,2,1,4,2,3,3,4,3,1,3,4,1,2,1,4,2,2,4,4,1,2,4,4,1,2,1,4,2,2,1,4,2,1,3,4,1,1,3,4,1,1,1,4,1,1,4,4,1,1,4,4,1,1,1,4,1,1,1,4,1,1,3,4,1,1,3,4,1,1,2,4,2,1,1,4,1,1,1,4,1,1,2,4,2,1,2,4,2,1,3,4,1]
letting ub =  197
